(set-logic QF_S)
(set-option :parse-transducers true)
(set-option :produce-models true)
(define-fun-rec toLower ((x String) (y String)) Bool
   (or (and (= x "") (= y ""))
       (and (not (= x "")) (not (= y ""))
           (= (char.code (str.head y))
               (ite (and (<= 65 (char.code (str.head x)))
                       (<= (char.code (str.head x)) 90))
                   (+ (char.code (str.head x)) 32)
                   (char.code (str.head x))))
           (toLower (str.tail x) (str.tail y))))
)
(declare-fun sym1438 () String)
(declare-fun sym122 () String)
(declare-fun sym970 () String)
(declare-fun sym1312 () String)
(declare-fun sym400 () String)
(declare-fun sym742 () String)
(declare-fun sym247 () String)
(declare-fun sym1198 () String)
(declare-fun sym514 () String)
(declare-fun sym856 () String)
(declare-fun sym1084 () String)
(declare-fun sym628 () String)
(declare-fun L13  () String)
(declare-fun L9  () String)
(declare-fun L8  () String)
(declare-fun L5  () String)
(declare-fun L6  () String)
(declare-fun L11  () String)
(declare-fun L3  () String)
(declare-fun L4  () String)
(declare-fun L1  () String)
(declare-fun L2  () String)
(declare-fun L0  () String)
(declare-fun L39  () String)
(assert (toLower sym1438  L39 ))
(assert (toLower sym742  L0 ))
(assert (toLower sym1198  L2 ))
(assert (toLower sym628  L1 ))
(assert (toLower sym514  L4 ))
(assert (toLower sym122  L3 ))
(assert (toLower sym247  L11 ))
(assert (toLower sym400  L6 ))
(assert (toLower sym1084  L5 ))
(assert (toLower sym856  L8 ))
(assert (toLower sym1312  L9 ))
(assert (toLower sym970  L13 ))

(assert (not (= L0 "/restart" )))
(assert (not (= L1 "/?" )))
(assert (not (= L2 "/restart" )))
(assert (not (= L3 "elementary" )))
(assert (not (= L4 "/restart" )))
(assert (not (= L5 "/restart" )))
(assert (not (str.contains L6 "/say" )))
(assert (not (str.contains L2 "/setfont" )))
(assert (not (= L8 "/clear" )))
(assert (not (= L9 "/quit" )))
(assert (not (str.contains L1 "/say" )))
(assert (not (= L11 "/clear" )))
(assert (not (str.contains L2 "/setsize" )))
(assert (not (= L13 "/help" )))
(assert (not (str.contains L4 "/say" )))
(assert (not (= L11 "/?" )))
(assert (not (str.contains L5 "/say" )))
(assert (not (= L1 "n" )))
(assert (not (= L13 "y" )))
(assert (not (str.contains L13 "/setsize" )))
(assert (not (= L1 "/help" )))
(assert (not (str.contains L5 "/setsize" )))
(assert (not (= L13 "n" )))
(assert (not (str.contains L8 "/say" )))
(assert (= L3 "middle school" ))
(assert (not (str.contains L13 "/setfont" )))
(assert (not (str.contains L11 "/say" )))
(assert (not (str.contains L4 "/setsize" )))
(assert (not (= L2 "y" )))
(assert (not (= L2 "/?" )))
(assert (not (= L8 "n" )))
(assert (not (= L6 "/help" )))
(assert (not (= L2 "n" )))
(assert (not (= L11 "/help" )))
(assert (not (= L8 "/?" )))
(assert (not (= L13 "/clear" )))
(assert (not (= L0 "/clear" )))
(assert (not (= L6 "/clear" )))
(assert (not (str.contains L1 "/setsize" )))
(assert (not (= L39 "/restart" )))
(assert (not (= L0 "/?" )))
(assert (not (= L0 "/quit" )))
(assert (not (= L11 "n" )))
(assert (not (= L5 "/clear" )))
(assert (not (str.contains L9 "/setfont" )))
(assert (not (= L11 "/restart" )))
(assert (not (= L11 "/quit" )))
(assert (not (= L6 "/restart" )))
(assert (not (= L4 "/?" )))
(assert (not (= L1 "/restart" )))
(assert (not (= L9 "/restart" )))
(assert (not (= L9 "/?" )))
(assert (not (= L4 "/help" )))
(assert (not (= L1 "/quit" )))
(assert (not (str.contains L9 "/setsize" )))
(assert (not (= L9 "n" )))
(assert (not (= L39 "y" )))
(assert (not (= L6 "/quit" )))
(assert (not (= L0 "y" )))
(assert (not (str.contains L1 "/setfont" )))
(assert (not (= L9 "/clear" )))
(assert (not (str.contains L6 "/setfont" )))
(assert (not (str.contains L11 "/setsize" )))
(assert (not (= L5 "/?" )))
(assert (not (= L8 "/quit" )))
(assert (not (str.contains L8 "/setfont" )))
(assert (not (= L5 "/help" )))
(assert (not (= L2 "/quit" )))
(assert (not (= L6 "n" )))
(assert (not (= L4 "/quit" )))
(assert (not (str.contains L11 "/setfont" )))
(assert (not (str.contains L6 "/setsize" )))
(assert (not (str.contains L8 "/setsize" )))
(assert (not (= L2 "/help" )))
(assert (not (str.contains L0 "/setsize" )))
(assert (not (= L2 "/clear" )))
(assert (not (str.contains L0 "/setfont" )))
(assert (= L39 "n" ))
(assert (not (= L1 "y" )))
(assert (not (= L13 "/?" )))
(assert (not (= L5 "/quit" )))
(assert (not (str.contains L0 "/say" )))
(assert (not (= L6 "/?" )))
(assert (not (= L4 "y" )))
(assert (not (= L13 "/restart" )))
(assert (not (str.contains L9 "/say" )))
(assert (not (= L0 "/help" )))
(assert (not (str.contains L5 "/setfont" )))
(assert (not (= L8 "/restart" )))
(assert (not (= L5 "y" )))
(assert (not (str.contains L13 "/say" )))
(assert (not (= L1 "/clear" )))
(assert (not (= L4 "n" )))
(assert (not (= L9 "y" )))
(assert (not (= L9 "/help" )))
(assert (not (str.contains L4 "/setfont" )))
(assert (not (= L8 "y" )))
(assert (not (= L4 "/clear" )))
(assert (not (= L6 "y" )))
(assert (not (= L5 "n" )))
(assert (not (= L0 "n" )))
(assert (not (str.contains L2 "/say" )))
(assert (not (= L13 "/quit" )))
(assert (not (= L11 "y" )))
(assert (not (= L8 "/help" )))
(check-sat)
(get-model)
(exit)
